TCS_Benchmarks/redos_fix/snort1_output_distinct_2570_2569_12_0.smt2
(set-logic QF_S)
(declare-const x String)
(assert (str.in.re x (re.inter (re.* (re.comp  (re.union  (str.to_re "\u{0A}")  (str.to_re "\u{0D}"))) )  (re.++ (re.* (re.comp  (re.union  (str.to_re "\u{0A}")  (str.to_re "\u{0D}"))) ) (re.++  (re.++  (re.union  (str.to.re "\u{61}")  (str.to.re "\u{41}")) (re.++  (re.union  (str.to.re "\u{63}")  (str.to.re "\u{43}")) (re.++  (re.union  (str.to.re "\u{74}")  (str.to.re "\u{54}")) (re.++  (re.union  (str.to.re "\u{69}")  (str.to.re "\u{49}")) (re.++  (re.union  (str.to.re "\u{76}")  (str.to.re "\u{56}")) (re.++  (re.union  (str.to.re "\u{69}")  (str.to.re "\u{49}")) (re.++  (re.union  (str.to.re "\u{74}")  (str.to.re "\u{54}")) (re.++  (re.union  (str.to.re "\u{79}")  (str.to.re "\u{59}")) (re.++ (re.* (re.comp  (re.union  (str.to_re "\u{0A}")  (str.to_re "\u{0D}"))) ) (re.++  (re.union  (str.to.re "\u{6b}")  (str.to.re "\u{4b}")) (re.++  (re.union  (str.to.re "\u{65}")  (str.to.re "\u{45}")) (re.++  (re.union  (str.to.re "\u{79}")  (str.to.re "\u{59}")) (re.++  (re.union  (str.to.re "\u{6c}")  (str.to.re "\u{4c}")) (re.++  (re.union  (str.to.re "\u{6f}")  (str.to.re "\u{4f}")) (re.++  (re.union  (str.to.re "\u{67}")  (str.to.re "\u{47}")) (re.++  (re.union  (str.to.re "\u{67}")  (str.to.re "\u{47}")) (re.++  (re.union  (str.to.re "\u{65}")  (str.to.re "\u{45}"))  (re.union  (str.to.re "\u{72}")  (str.to.re "\u{52}"))))))))))))))))))) (re.* (re.comp  (re.union  (str.to_re "\u{0A}")  (str.to_re "\u{0D}"))) ))) (re.* (re.comp  (re.union  (str.to_re "\u{0A}")  (str.to_re "\u{0D}"))) ) )))
(check-sat)
(get-model)