TCS_Benchmarks/redos_fix/snort1_output_distinct_2570_2569_12_0.txt
[^\n\r]*
([^\n\r]*)([aA][cC][tT][iI][vV][iI][tT][yY][^\n\r]*[kK][eE][yY][lL][oO][gG][gG][eE][rR])([^\n\r]*)
[^\n\r]*